
<<< setup

Version identifier: 22.1.1.0 | 2022-11-27 | 9160aff4d
Tried aggregator 1 time.
LP Presolve eliminated 111 rows and 84 columns.
Reduced LP has 2 rows, 13 columns, and 13 nonzeros.
Presolve time = 0.00 sec. (0.04 ticks)

Iteration log . . .
Iteration:     1   Dual objective     =          1526.450915
main returns 0

<<< main


<<< done

